Transportation_Problem/Transportation.sol
# Solution for model basic_model
# Objective value = 24000000
C0(3) 200000
C1(3) 0
C2(3) 75000
C3(3) 0
C4(3) 250000
C5(3) 150000
C6(3) 0
C7(3) 300000
C8(3) 0
